(declare-fun temp4473_1 () (_ BitVec 64))
(declare-fun var196834 () (_ BitVec 64))
(declare-fun temp4473_2 () (_ BitVec 64))
(declare-fun temp4473_3 () (_ BitVec 64))
(declare-fun var70396 () (_ BitVec 64))
(declare-fun k!0 () Bool)
(declare-fun ARGNAME_x_NAMEEND_DIM () (_ BitVec 64))
(declare-fun temp4473_4 () (_ BitVec 64))
(declare-fun var65762 () (_ BitVec 64))
(declare-fun temp4473_5 () (_ BitVec 64))
(declare-fun temp4473_6 () (_ BitVec 64))
(declare-fun ARGNAME_x_NAMEEND_DIMSIZE () (Array (_ BitVec 64) (_ BitVec 64)))
(declare-fun temp4473_7 () (_ BitVec 64))
(declare-fun temp4473_8 () (_ BitVec 64))
(declare-fun temp4473_9 () (_ BitVec 64))
(declare-fun temp4473_10 () (_ BitVec 64))
(declare-fun temp4473_11 () (_ BitVec 64))
(declare-fun temp4473_12 () (_ BitVec 64))
(declare-fun temp4473_13 () (_ BitVec 64))
(declare-fun temp4473_14 () (_ BitVec 64))
(declare-fun temp4473_15 () (_ BitVec 64))
(declare-fun temp4473_16 () (_ BitVec 64))
(declare-fun temp4473_17 () (_ BitVec 64))
(declare-fun temp4473_18 () (_ BitVec 64))
(declare-fun temp4473_19 () (_ BitVec 64))
(declare-fun temp4473_20 () (_ BitVec 64))
(declare-fun temp4473_21 () (_ BitVec 64))
(declare-fun temp4473_22 () (_ BitVec 64))
(declare-fun temp4473_23 () (_ BitVec 64))
(declare-fun temp4473_24 () (_ BitVec 64))
(declare-fun temp4473_25 () (_ BitVec 64))
(declare-fun var70398 () (_ BitVec 64))
(declare-fun temp4473_27 () (_ BitVec 64))
(declare-fun temp4473_26 () (_ BitVec 64))
(declare-fun temp4473_28 () (_ BitVec 64))
(declare-fun var526834 () (_ BitVec 64))
(declare-fun var526836 () (_ BitVec 64))
(declare-fun var592572 () (_ BitVec 64))
(declare-fun var658116 () (_ BitVec 64))
(declare-fun temp4473_29 () (_ BitVec 64))
(declare-fun temp4473_30 () (_ BitVec 64))
(declare-fun temp4473_31 () (_ BitVec 64))
(declare-fun temp4473_32 () (_ BitVec 64))
(declare-fun var70423 () (_ BitVec 64))
(declare-fun temp4473_34 () (_ BitVec 64))
(declare-fun temp4473_33 () (_ BitVec 64))
(declare-fun temp4473_36 () (_ BitVec 64))
(declare-fun temp4473_35 () (_ BitVec 64))
(declare-fun temp4473_37 () (_ BitVec 64))
(declare-fun var2360614 () (_ BitVec 64))
(declare-fun temp4473_38 () (_ BitVec 64))
(declare-fun var2360662 () (_ BitVec 64))
(declare-fun temp4473_39 () (_ BitVec 64))
(declare-fun temp4473_41 () (_ BitVec 64))
(declare-fun temp4473_40 () (_ BitVec 64))
(declare-fun temp4473_42 () (_ BitVec 64))
(declare-fun var2753830 () (_ BitVec 64))
(assert (= temp4473_1 #x0000000000000000))
(assert (= var196834 temp4473_1))
(assert (= temp4473_2 #x0000000000000001))
(assert (= var70396
   (ite (= ARGNAME_x_NAMEEND_DIM temp4473_2)
        #x0000000000000001
        #x0000000000000000)))
(assert (= temp4473_3 #x0000000000000001))
(assert (= var70396 temp4473_3))
(assert (= temp4473_4 #x0000000000000000))
(assert (= var65762 temp4473_4))
(assert (= temp4473_5 #x0000000000000000))
(assert (= temp4473_6 temp4473_5))
(assert (= temp4473_7 (select ARGNAME_x_NAMEEND_DIMSIZE temp4473_6)))
(assert (= temp4473_8 #x0000000000000001))
(assert (= temp4473_9 temp4473_8))
(assert (= temp4473_10 (select ARGNAME_x_NAMEEND_DIMSIZE temp4473_9)))
(assert (= temp4473_11 #x0000000000000002))
(assert (= temp4473_12 temp4473_11))
(assert (= temp4473_13 (select ARGNAME_x_NAMEEND_DIMSIZE temp4473_12)))
(assert (= temp4473_14 #x0000000000000003))
(assert (= temp4473_15 temp4473_14))
(assert (= temp4473_16 (select ARGNAME_x_NAMEEND_DIMSIZE temp4473_15)))
(assert (= temp4473_17 #x0000000000000004))
(assert (= temp4473_18 temp4473_17))
(assert (= temp4473_19 (select ARGNAME_x_NAMEEND_DIMSIZE temp4473_18)))
(assert (= temp4473_20 #x0000000000000005))
(assert (= temp4473_21 temp4473_20))
(assert (= temp4473_22 (select ARGNAME_x_NAMEEND_DIMSIZE temp4473_21)))
(assert (= temp4473_23 #x0000000000000000))
(assert (= temp4473_24
   (ite (bvslt var65762 temp4473_23)
        (bvadd ARGNAME_x_NAMEEND_DIM var65762)
        var65762)))
(assert (= temp4473_25 (select ARGNAME_x_NAMEEND_DIMSIZE temp4473_24)))
(assert (= var70398 temp4473_25))
(assert (bvslt (ite (bvslt var65762 temp4473_23)
            (bvadd ARGNAME_x_NAMEEND_DIM var65762)
            var65762)
       ARGNAME_x_NAMEEND_DIM))
(assert (= temp4473_27 #x0000000000000001))
(assert (= temp4473_26 temp4473_27))
(assert (= temp4473_28 #x0000000000000005))
(assert (= var526834 temp4473_28))
(assert (= var526836 var526834))
(assert (= var592572 var526836))
(assert (= var658116 var592572))
(assert (= temp4473_29 #x0000000000000000))
(assert (= var65762 temp4473_29))
(assert (= temp4473_30 #x0000000000000000))
(assert (= temp4473_31
   (ite (bvslt var65762 temp4473_30)
        (bvadd ARGNAME_x_NAMEEND_DIM var65762)
        var65762)))
(assert (= temp4473_32 (select ARGNAME_x_NAMEEND_DIMSIZE temp4473_31)))
(assert (= var70423 temp4473_32))
(assert (bvslt (ite (bvslt var65762 temp4473_30)
            (bvadd ARGNAME_x_NAMEEND_DIM var65762)
            var65762)
       ARGNAME_x_NAMEEND_DIM))
(assert (= temp4473_34 #x0000000000000000))
(assert (= temp4473_33 temp4473_34))
(assert (= temp4473_36 #xffffffffffffffff))
(assert (= temp4473_35 temp4473_36))
(assert (= temp4473_37 #x0000000000000001))
(assert (= var2360614 temp4473_37))
(assert (= temp4473_38 #x0000000000000000))
(assert (= var2360662 temp4473_38))
(assert (= temp4473_39 #x0000000000000000))
(assert (= var2360662 temp4473_39))
(assert (= temp4473_41 #x0000000000000001))
(assert (= temp4473_40 temp4473_41))
(assert (= temp4473_42 #x0000000000000001))
(assert (= var2753830 temp4473_42))
(model-add temp4473_1 () (_ BitVec 64) #x0000000000000000)
(model-add var196834 () (_ BitVec 64) #x0000000000000000)
(model-add temp4473_2 () (_ BitVec 64) #x0000000000000001)
(model-add temp4473_3 () (_ BitVec 64) #x0000000000000001)
(model-add var70396 () (_ BitVec 64) #x0000000000000001)
(model-del k!0)
(model-add ARGNAME_x_NAMEEND_DIM
           ()
           (_ BitVec 64)
           (ite k!0 #x0000000000000001 (bvnot #x0000000000000001)))




